language Essence 1.3

letting costTC be
        function((1, 1) --> 6, (1, 2) --> 1, (1, 3) --> 10, (1, 4) --> 9, (1, 5) --> 10, (2, 1) --> 5, (2, 2) --> 6,
                 (2, 3) --> 9, (2, 4) --> 5, (2, 5) --> 8, (3, 1) --> 10, (3, 2) --> 7, (3, 3) --> 11, (3, 4) --> 7,
                 (3, 5) --> 4, (4, 1) --> 3, (4, 2) --> 10, (4, 3) --> 5, (4, 4) --> 8, (4, 5) --> 3, (5, 1) --> 5,
                 (5, 2) --> 6, (5, 3) --> 9, (5, 4) --> 8, (5, 5) --> 3, (6, 1) --> 10, (6, 2) --> 8, (6, 3) --> 11,
                 (6, 4) --> 3, (6, 5) --> 4, (7, 1) --> 8, (7, 2) --> 9, (7, 3) --> 1, (7, 4) --> 11, (7, 5) --> 5,
                 (8, 1) --> 10, (8, 2) --> 4, (8, 3) --> 8, (8, 4) --> 1, (8, 5) --> 5, (9, 1) --> 3, (9, 2) --> 7,
                 (9, 3) --> 3, (9, 4) --> 11, (9, 5) --> 6, (10, 1) --> 11, (10, 2) --> 6, (10, 3) --> 5, (10, 4) --> 5,
                 (10, 5) --> 4, (11, 1) --> 1, (11, 2) --> 3, (11, 3) --> 3, (11, 4) --> 4, (11, 5) --> 4,
                 (12, 1) --> 9, (12, 2) --> 4, (12, 3) --> 6, (12, 4) --> 8, (12, 5) --> 5, (13, 1) --> 6,
                 (13, 2) --> 7, (13, 3) --> 3, (13, 4) --> 6, (13, 5) --> 2, (14, 1) --> 10, (14, 2) --> 10,
                 (14, 3) --> 2, (14, 4) --> 6, (14, 5) --> 4, (15, 1) --> 3, (15, 2) --> 8, (15, 3) --> 8,
                 (15, 4) --> 5, (15, 5) --> 3, (16, 1) --> 11, (16, 2) --> 1, (16, 3) --> 10, (16, 4) --> 9,
                 (16, 5) --> 1)
letting costWT be
        function((1, 1) --> 2, (1, 2) --> 1, (1, 3) --> 2, (1, 4) --> 1, (1, 5) --> 2, (1, 6) --> 1, (1, 7) --> 2,
                 (1, 8) --> 2, (1, 9) --> 1, (1, 10) --> 1, (1, 11) --> 1, (1, 12) --> 1, (1, 13) --> 2, (1, 14) --> 1,
                 (1, 15) --> 1, (1, 16) --> 2, (2, 1) --> 1, (2, 2) --> 1, (2, 3) --> 2, (2, 4) --> 1, (2, 5) --> 2,
                 (2, 6) --> 1, (2, 7) --> 1, (2, 8) --> 1, (2, 9) --> 1, (2, 10) --> 2, (2, 11) --> 2, (2, 12) --> 1,
                 (2, 13) --> 1, (2, 14) --> 2, (2, 15) --> 1, (2, 16) --> 2, (3, 1) --> 1, (3, 2) --> 2, (3, 3) --> 1,
                 (3, 4) --> 1, (3, 5) --> 1, (3, 6) --> 2, (3, 7) --> 1, (3, 8) --> 2, (3, 9) --> 1, (3, 10) --> 2,
                 (3, 11) --> 2, (3, 12) --> 2, (3, 13) --> 1, (3, 14) --> 2, (3, 15) --> 2, (3, 16) --> 1, (4, 1) --> 2,
                 (4, 2) --> 2, (4, 3) --> 1, (4, 4) --> 2, (4, 5) --> 1, (4, 6) --> 2, (4, 7) --> 1, (4, 8) --> 2,
                 (4, 9) --> 2, (4, 10) --> 2, (4, 11) --> 1, (4, 12) --> 1, (4, 13) --> 2, (4, 14) --> 2, (4, 15) --> 1,
                 (4, 16) --> 1, (5, 1) --> 2, (5, 2) --> 1, (5, 3) --> 2, (5, 4) --> 1, (5, 5) --> 1, (5, 6) --> 1,
                 (5, 7) --> 1, (5, 8) --> 1, (5, 9) --> 2, (5, 10) --> 2, (5, 11) --> 1, (5, 12) --> 2, (5, 13) --> 2,
                 (5, 14) --> 2, (5, 15) --> 1, (5, 16) --> 2, (6, 1) --> 2, (6, 2) --> 1, (6, 3) --> 1, (6, 4) --> 1,
                 (6, 5) --> 2, (6, 6) --> 2, (6, 7) --> 2, (6, 8) --> 1, (6, 9) --> 2, (6, 10) --> 1, (6, 11) --> 2,
                 (6, 12) --> 1, (6, 13) --> 2, (6, 14) --> 1, (6, 15) --> 1, (6, 16) --> 1, (7, 1) --> 2, (7, 2) --> 2,
                 (7, 3) --> 2, (7, 4) --> 2, (7, 5) --> 2, (7, 6) --> 1, (7, 7) --> 1, (7, 8) --> 2, (7, 9) --> 2,
                 (7, 10) --> 1, (7, 11) --> 2, (7, 12) --> 2, (7, 13) --> 1, (7, 14) --> 1, (7, 15) --> 2,
                 (7, 16) --> 1, (8, 1) --> 1, (8, 2) --> 1, (8, 3) --> 1, (8, 4) --> 2, (8, 5) --> 1, (8, 6) --> 2,
                 (8, 7) --> 1, (8, 8) --> 2, (8, 9) --> 2, (8, 10) --> 1, (8, 11) --> 1, (8, 12) --> 2, (8, 13) --> 1,
                 (8, 14) --> 1, (8, 15) --> 2, (8, 16) --> 1, (9, 1) --> 2, (9, 2) --> 2, (9, 3) --> 2, (9, 4) --> 2,
                 (9, 5) --> 2, (9, 6) --> 1, (9, 7) --> 2, (9, 8) --> 1, (9, 9) --> 1, (9, 10) --> 1, (9, 11) --> 2,
                 (9, 12) --> 1, (9, 13) --> 1, (9, 14) --> 1, (9, 15) --> 2, (9, 16) --> 2, (10, 1) --> 1,
                 (10, 2) --> 2, (10, 3) --> 2, (10, 4) --> 1, (10, 5) --> 1, (10, 6) --> 1, (10, 7) --> 1,
                 (10, 8) --> 2, (10, 9) --> 2, (10, 10) --> 1, (10, 11) --> 2, (10, 12) --> 1, (10, 13) --> 2,
                 (10, 14) --> 2, (10, 15) --> 2, (10, 16) --> 2, (11, 1) --> 1, (11, 2) --> 2, (11, 3) --> 1,
                 (11, 4) --> 2, (11, 5) --> 2, (11, 6) --> 1, (11, 7) --> 1, (11, 8) --> 1, (11, 9) --> 1,
                 (11, 10) --> 1, (11, 11) --> 1, (11, 12) --> 2, (11, 13) --> 1, (11, 14) --> 2, (11, 15) --> 1,
                 (11, 16) --> 1, (12, 1) --> 2, (12, 2) --> 1, (12, 3) --> 2, (12, 4) --> 2, (12, 5) --> 2,
                 (12, 6) --> 1, (12, 7) --> 2, (12, 8) --> 2, (12, 9) --> 1, (12, 10) --> 2, (12, 11) --> 2,
                 (12, 12) --> 2, (12, 13) --> 1, (12, 14) --> 2, (12, 15) --> 2, (12, 16) --> 1, (13, 1) --> 2,
                 (13, 2) --> 1, (13, 3) --> 2, (13, 4) --> 1, (13, 5) --> 1, (13, 6) --> 1, (13, 7) --> 1,
                 (13, 8) --> 2, (13, 9) --> 2, (13, 10) --> 2, (13, 11) --> 1, (13, 12) --> 1, (13, 13) --> 2,
                 (13, 14) --> 1, (13, 15) --> 2, (13, 16) --> 2, (14, 1) --> 1, (14, 2) --> 2, (14, 3) --> 1,
                 (14, 4) --> 1, (14, 5) --> 2, (14, 6) --> 1, (14, 7) --> 1, (14, 8) --> 1, (14, 9) --> 2,
                 (14, 10) --> 1, (14, 11) --> 1, (14, 12) --> 1, (14, 13) --> 2, (14, 14) --> 2, (14, 15) --> 2,
                 (14, 16) --> 1, (15, 1) --> 1, (15, 2) --> 2, (15, 3) --> 2, (15, 4) --> 2, (15, 5) --> 1,
                 (15, 6) --> 2, (15, 7) --> 1, (15, 8) --> 2, (15, 9) --> 2, (15, 10) --> 1, (15, 11) --> 1,
                 (15, 12) --> 2, (15, 13) --> 2, (15, 14) --> 1, (15, 15) --> 2, (15, 16) --> 2, (16, 1) --> 1,
                 (16, 2) --> 2, (16, 3) --> 1, (16, 4) --> 1, (16, 5) --> 2, (16, 6) --> 2, (16, 7) --> 2,
                 (16, 8) --> 1, (16, 9) --> 1, (16, 10) --> 2, (16, 11) --> 1, (16, 12) --> 1, (16, 13) --> 2,
                 (16, 14) --> 1, (16, 15) --> 1, (16, 16) --> 1, (17, 1) --> 1, (17, 2) --> 2, (17, 3) --> 2,
                 (17, 4) --> 1, (17, 5) --> 2, (17, 6) --> 1, (17, 7) --> 2, (17, 8) --> 1, (17, 9) --> 1,
                 (17, 10) --> 2, (17, 11) --> 2, (17, 12) --> 2, (17, 13) --> 1, (17, 14) --> 1, (17, 15) --> 2,
                 (17, 16) --> 2, (18, 1) --> 2, (18, 2) --> 1, (18, 3) --> 1, (18, 4) --> 2, (18, 5) --> 2,
                 (18, 6) --> 2, (18, 7) --> 1, (18, 8) --> 1, (18, 9) --> 1, (18, 10) --> 1, (18, 11) --> 1,
                 (18, 12) --> 1, (18, 13) --> 1, (18, 14) --> 1, (18, 15) --> 2, (18, 16) --> 2, (19, 1) --> 2,
                 (19, 2) --> 1, (19, 3) --> 1, (19, 4) --> 1, (19, 5) --> 1, (19, 6) --> 2, (19, 7) --> 1,
                 (19, 8) --> 2, (19, 9) --> 2, (19, 10) --> 2, (19, 11) --> 1, (19, 12) --> 1, (19, 13) --> 2,
                 (19, 14) --> 2, (19, 15) --> 1, (19, 16) --> 1, (20, 1) --> 1, (20, 2) --> 2, (20, 3) --> 1,
                 (20, 4) --> 2, (20, 5) --> 1, (20, 6) --> 2, (20, 7) --> 2, (20, 8) --> 1, (20, 9) --> 2,
                 (20, 10) --> 2, (20, 11) --> 2, (20, 12) --> 2, (20, 13) --> 1, (20, 14) --> 2, (20, 15) --> 2,
                 (20, 16) --> 2, (21, 1) --> 1, (21, 2) --> 1, (21, 3) --> 1, (21, 4) --> 1, (21, 5) --> 1,
                 (21, 6) --> 1, (21, 7) --> 1, (21, 8) --> 2, (21, 9) --> 1, (21, 10) --> 2, (21, 11) --> 2,
                 (21, 12) --> 2, (21, 13) --> 1, (21, 14) --> 1, (21, 15) --> 2, (21, 16) --> 1, (22, 1) --> 2,
                 (22, 2) --> 1, (22, 3) --> 2, (22, 4) --> 1, (22, 5) --> 2, (22, 6) --> 1, (22, 7) --> 2,
                 (22, 8) --> 2, (22, 9) --> 1, (22, 10) --> 1, (22, 11) --> 1, (22, 12) --> 1, (22, 13) --> 1,
                 (22, 14) --> 2, (22, 15) --> 2, (22, 16) --> 1, (23, 1) --> 1, (23, 2) --> 2, (23, 3) --> 1,
                 (23, 4) --> 1, (23, 5) --> 2, (23, 6) --> 1, (23, 7) --> 1, (23, 8) --> 2, (23, 9) --> 1,
                 (23, 10) --> 1, (23, 11) --> 2, (23, 12) --> 2, (23, 13) --> 1, (23, 14) --> 1, (23, 15) --> 1,
                 (23, 16) --> 2, (24, 1) --> 1, (24, 2) --> 2, (24, 3) --> 1, (24, 4) --> 2, (24, 5) --> 1,
                 (24, 6) --> 1, (24, 7) --> 2, (24, 8) --> 2, (24, 9) --> 2, (24, 10) --> 2, (24, 11) --> 2,
                 (24, 12) --> 1, (24, 13) --> 1, (24, 14) --> 2, (24, 15) --> 2, (24, 16) --> 1, (25, 1) --> 1,
                 (25, 2) --> 2, (25, 3) --> 1, (25, 4) --> 1, (25, 5) --> 2, (25, 6) --> 1, (25, 7) --> 1,
                 (25, 8) --> 2, (25, 9) --> 1, (25, 10) --> 1, (25, 11) --> 1, (25, 12) --> 1, (25, 13) --> 1,
                 (25, 14) --> 1, (25, 15) --> 2, (25, 16) --> 1, (26, 1) --> 2, (26, 2) --> 2, (26, 3) --> 2,
                 (26, 4) --> 1, (26, 5) --> 1, (26, 6) --> 2, (26, 7) --> 1, (26, 8) --> 2, (26, 9) --> 1,
                 (26, 10) --> 1, (26, 11) --> 1, (26, 12) --> 2, (26, 13) --> 1, (26, 14) --> 1, (26, 15) --> 1,
                 (26, 16) --> 2)
letting demand be function(1 --> 6, 2 --> 6, 3 --> 6, 4 --> 6, 5 --> 6)
letting maxCost be 26
letting n_customer be 5
letting n_transshipment be 16
letting n_warehouses be 26
letting stock be
        function(1 --> 4, 2 --> 5, 3 --> 4, 4 --> 5, 5 --> 3, 6 --> 4, 7 --> 4, 8 --> 5, 9 --> 3, 10 --> 5, 11 --> 3,
                 12 --> 3, 13 --> 4, 14 --> 5, 15 --> 4, 16 --> 4, 17 --> 5, 18 --> 5, 19 --> 4, 20 --> 5, 21 --> 4,
                 22 --> 5, 23 --> 5, 24 --> 5, 25 --> 4, 26 --> 3)
